v1 = 5;
v2 = 5;
vertexWeights = [-45, -45, -45, -45, -45, -45, -90, -90, -90, -39.38591118661596, -90, -45, -90, -90, -36.61966684720111, -90, -90, -45, -90, -90, -90, -90, -90, -45, -90, -90, -67.7421582177598, -90, -90, -45, -90, -90, -90, -90, -90];
edgeWeights = [| 0, -7.5, 0, 0, 0, 0, 0, -7.5, 0, 0, 0, 0, 0, -7.5, 0, 0, 0, 0, 0, -7.5, 0, 0, 0, 0, 0, -7.5, 0, 0, 0, 0, 0, -7.5, 0, 0, 0
| -7.5, 0, -7.5, 0, 0, 0, -7.5, 0, -7.5, 0, 0, 0, -7.5, 0, -7.5, 0, 0, 0, -7.5, 0, -7.5, 0, 0, 0, -7.5, 0, -7.5, 0, 0, 0, -7.5, 0, -7.5, 0, 0
| 0, -7.5, 0, 0, -7.5, 0, 0, -7.5, 0, 0, -7.5, 0, 0, -7.5, 0, 0, -7.5, 0, 0, -7.5, 0, 0, -7.5, 0, 0, -7.5, 0, 0, -7.5, 0, 0, -7.5, 0, 0, -7.5
| 0, 0, 0, 0, 0, 0, 0, 0, 0, 0, 0, 0, 0, 0, 0, 0, 0, 0, 0, 0, 0, 0, 0, 0, 0, 0, 0, 0, 0, 0, 0, 0, 0, 0, 0
| 0, 0, -7.5, 0, 0, 0, 0, 0, -7.5, 0, 0, 0, 0, 0, -7.5, 0, 0, 0, 0, 0, -7.5, 0, 0, 0, 0, 0, -7.5, 0, 0, 0, 0, 0, -7.5, 0, 0
| 0, 0, 0, 0, 0, 0, 0, 0, 0, 0, 0, 0, 0, 0, 0, 0, 0, 0, 0, 0, 0, 0, 0, 0, 0, 0, 0, 0, 0, 0, 0, 0, 0, 0, 0
| 0, -7.5, -0.0, -0.0, -0.0, 0, 0, 0, 0, 0, 0, -0.0, 0, -7.5, 0, 0, 0, -0.0, 0, -7.5, 0, 0, 0, -0.0, 0, -7.5, 0, 0, 0, -0.0, 0, -7.5, 0, 0, 0
| -7.5, 0, -7.5, -0.0, -0.0, 0, 0, 0, 0, 0, 0, -0.0, -7.5, 0, -7.5, 0, 0, -0.0, -7.5, 0, -7.5, 0, 0, -0.0, -7.5, 0, -7.5, 0, 0, -0.0, -7.5, 0, -7.5, 0, 0
| -0.0, -7.5, 0, -0.0, -7.5, 0, 0, 0, 0, 0, 0, -0.0, 0, -7.5, 0, 0, -7.5, -0.0, 0, -7.5, 0, 0, -7.5, -0.0, 0, -7.5, 0, 0, -7.5, -0.0, 0, -7.5, 0, 0, -7.5
| -0.0, -0.0, -0.0, 0, -0.0, 0, 0, 0, 0, 0, 0, -0.0, 0, 0, 0, 0, 0, -0.0, 0, 0, 0, 0, 0, -0.0, 0, 0, 0, 0, 0, -0.0, 0, 0, 0, 0, 0
| -0.0, -0.0, -7.5, -0.0, 0, 0, 0, 0, 0, 0, 0, -0.0, 0, 0, -7.5, 0, 0, -0.0, 0, 0, -7.5, 0, 0, -0.0, 0, 0, -7.5, 0, 0, -0.0, 0, 0, -7.5, 0, 0
| 0, 0, 0, 0, 0, 0, 0, 0, 0, 0, 0, 0, 0, 0, 0, 0, 0, 0, 0, 0, 0, 0, 0, 0, 0, 0, 0, 0, 0, -15.0, -15.0, -15.0, -15.0, -15.0, -15.0
| 0, -7.5, -0.0, -0.0, -0.0, -0.0, 0, -7.5, 0, 0, 0, 0, 0, 0, 0, 0, 0, -0.0, 0, -7.5, 0, 0, 0, -0.0, 0, -7.5, 0, 0, 0, -15.0, 0, -7.5, -0.0, -0.0, -15.0
| -7.5, 0, -7.5, -0.0, -0.0, -0.0, -7.5, 0, -7.5, 0, 0, 0, 0, 0, 0, 0, 0, -0.0, -7.5, 0, -7.5, 0, 0, -0.0, -7.5, 0, -7.5, 0, 0, -15.0, -7.5, 0, -7.5, -0.0, -15.0
| -0.0, -7.5, 0, -0.0, -7.5, -0.0, 0, -7.5, 0, 0, -7.5, 0, 0, 0, 0, 0, 0, -0.0, 0, -7.5, 0, 0, -7.5, -0.0, 0, -7.5, 0, 0, -7.5, -15.0, -0.0, -7.5, 0, -0.0, -7.5
| -0.0, -0.0, -0.0, 0, -0.0, -0.0, 0, 0, 0, 0, 0, 0, 0, 0, 0, 0, 0, -0.0, 0, 0, 0, 0, 0, -0.0, 0, 0, 0, 0, 0, -15.0, -0.0, -0.0, -0.0, 0, -15.0
| -0.0, -0.0, -7.5, -0.0, 0, -0.0, 0, 0, -7.5, 0, 0, 0, 0, 0, 0, 0, 0, -0.0, 0, 0, -7.5, 0, 0, -0.0, 0, 0, -7.5, 0, 0, -15.0, -0.0, -0.0, -7.5, -0.0, 0
| 0, 0, 0, 0, 0, 0, 0, 0, 0, 0, 0, 0, 0, 0, 0, 0, 0, 0, 0, 0, 0, 0, 0, -15.0, -15.0, -15.0, -15.0, -15.0, -15.0, 0, 0, 0, 0, 0, 0
| 0, -7.5, -0.0, -0.0, -0.0, -0.0, 0, -7.5, 0, 0, 0, -0.0, 0, -7.5, 0, 0, 0, 0, 0, 0, 0, 0, 0, -15.0, 0, -7.5, -0.0, -15.0, -0.0, -0.0, 0, -7.5, 0, 0, 0
| -7.5, 0, -7.5, -0.0, -0.0, -0.0, -7.5, 0, -7.5, 0, 0, -0.0, -7.5, 0, -7.5, 0, 0, 0, 0, 0, 0, 0, 0, -15.0, -7.5, 0, -7.5, -15.0, -0.0, -0.0, -7.5, 0, -7.5, 0, 0
| -0.0, -7.5, 0, -0.0, -7.5, -0.0, 0, -7.5, 0, 0, -7.5, -0.0, 0, -7.5, 0, 0, -7.5, 0, 0, 0, 0, 0, 0, -15.0, -0.0, -7.5, 0, -15.0, -7.5, -0.0, 0, -7.5, 0, 0, -7.5
| -0.0, -0.0, -0.0, 0, -0.0, -0.0, 0, 0, 0, 0, 0, -0.0, 0, 0, 0, 0, 0, 0, 0, 0, 0, 0, 0, -15.0, -0.0, -0.0, -0.0, 0, -0.0, -0.0, 0, 0, 0, 0, 0
| -0.0, -0.0, -7.5, -0.0, 0, -0.0, 0, 0, -7.5, 0, 0, -0.0, 0, 0, -7.5, 0, 0, 0, 0, 0, 0, 0, 0, -15.0, -0.0, -0.0, -7.5, -15.0, 0, -0.0, 0, 0, -7.5, 0, 0
| 0, 0, 0, 0, 0, 0, 0, 0, 0, 0, 0, 0, 0, 0, 0, 0, 0, -15.0, -15.0, -15.0, -15.0, -15.0, -15.0, 0, 0, 0, 0, 0, 0, 0, 0, 0, 0, 0, 0
| 0, -7.5, -0.0, -0.0, -0.0, -0.0, 0, -7.5, 0, 0, 0, -0.0, 0, -7.5, 0, 0, 0, -15.0, 0, -7.5, -15.0, -0.0, -0.0, 0, 0, 0, 0, 0, 0, -0.0, 0, -7.5, 0, 0, 0
| -7.5, 0, -7.5, -0.0, -0.0, -0.0, -7.5, 0, -7.5, 0, 0, -0.0, -7.5, 0, -7.5, 0, 0, -15.0, -7.5, 0, -7.5, -0.0, -0.0, 0, 0, 0, 0, 0, 0, -0.0, -7.5, 0, -7.5, 0, 0
| -0.0, -7.5, 0, -0.0, -7.5, -0.0, 0, -7.5, 0, 0, -7.5, -0.0, 0, -7.5, 0, 0, -7.5, -15.0, -0.0, -7.5, 0, -0.0, -7.5, 0, 0, 0, 0, 0, 0, -0.0, 0, -7.5, 0, 0, -7.5
| -0.0, -0.0, -0.0, 0, -0.0, -0.0, 0, 0, 0, 0, 0, -0.0, 0, 0, 0, 0, 0, -15.0, -0.0, -0.0, -15.0, 0, -0.0, 0, 0, 0, 0, 0, 0, -0.0, 0, 0, 0, 0, 0
| -0.0, -0.0, -7.5, -0.0, 0, -0.0, 0, 0, -7.5, 0, 0, -0.0, 0, 0, -7.5, 0, 0, -15.0, -0.0, -0.0, -7.5, -0.0, 0, 0, 0, 0, 0, 0, 0, -0.0, 0, 0, -7.5, 0, 0
| 0, 0, 0, 0, 0, 0, 0, 0, 0, 0, 0, -15.0, -15.0, -15.0, -15.0, -15.0, -15.0, 0, 0, 0, 0, 0, 0, 0, 0, 0, 0, 0, 0, 0, 0, 0, 0, 0, 0
| 0, -7.5, -0.0, -0.0, -0.0, -0.0, 0, -7.5, 0, 0, 0, -15.0, 0, -7.5, -0.0, -0.0, -0.0, -0.0, 0, -7.5, 0, 0, 0, -0.0, 0, -7.5, 0, 0, 0, 0, 0, 0, 0, 0, 0
| -7.5, 0, -7.5, -0.0, -0.0, -0.0, -7.5, 0, -7.5, 0, 0, -15.0, -7.5, 0, -7.5, -0.0, -0.0, -0.0, -7.5, 0, -7.5, 0, 0, -0.0, -7.5, 0, -7.5, 0, 0, 0, 0, 0, 0, 0, 0
| -0.0, -7.5, 0, -0.0, -7.5, -0.0, 0, -7.5, 0, 0, -7.5, -15.0, -0.0, -7.5, 0, -0.0, -7.5, -0.0, 0, -7.5, 0, 0, -7.5, -0.0, 0, -7.5, 0, 0, -7.5, 0, 0, 0, 0, 0, 0
| -0.0, -0.0, -0.0, 0, -0.0, -0.0, 0, 0, 0, 0, 0, -15.0, -0.0, -15.0, -0.0, 0, -0.0, -0.0, 0, 0, 0, 0, 0, -0.0, 0, 0, 0, 0, 0, 0, 0, 0, 0, 0, 0
| -0.0, -0.0, -7.5, -0.0, 0, -0.0, 0, 0, -7.5, 0, 0, -15.0, -0.0, -15.0, -7.5, -0.0, 0, -0.0, 0, 0, -7.5, 0, 0, -0.0, 0, 0, -7.5, 0, 0, 0, 0, 0, 0, 0, 0 |];
adjacent = [| 0, 1, 1, 1, 1, 1, 0, 1, 1, 1, 1, 1, 0, 1, 1, 1, 1, 1, 0, 1, 1, 1, 1, 1, 0, 1, 1, 1, 1, 1, 0, 1, 1, 1, 1
| 1, 0, 1, 1, 1, 1, 1, 0, 1, 1, 1, 1, 1, 0, 1, 1, 1, 1, 1, 0, 1, 1, 1, 1, 1, 0, 1, 1, 1, 1, 1, 0, 1, 1, 1
| 1, 1, 0, 1, 1, 1, 1, 1, 0, 1, 1, 1, 1, 1, 0, 1, 1, 1, 1, 1, 0, 1, 1, 1, 1, 1, 0, 1, 1, 1, 1, 1, 0, 1, 1
| 1, 1, 1, 0, 1, 1, 1, 1, 1, 0, 1, 1, 1, 1, 1, 0, 1, 1, 1, 1, 1, 0, 1, 1, 1, 1, 1, 0, 1, 1, 1, 1, 1, 0, 1
| 1, 1, 1, 1, 0, 1, 1, 1, 1, 1, 0, 1, 1, 1, 1, 1, 0, 1, 1, 1, 1, 1, 0, 1, 1, 1, 1, 1, 0, 1, 1, 1, 1, 1, 0
| 1, 1, 1, 1, 1, 0, 0, 0, 0, 0, 0, 1, 1, 1, 1, 1, 1, 1, 1, 1, 1, 1, 1, 1, 1, 1, 1, 1, 1, 1, 1, 1, 1, 1, 1
| 0, 1, 1, 1, 1, 0, 0, 0, 0, 0, 0, 1, 0, 1, 1, 1, 1, 1, 0, 1, 1, 1, 1, 1, 0, 1, 1, 1, 1, 1, 0, 1, 1, 1, 1
| 1, 0, 1, 1, 1, 0, 0, 0, 0, 0, 0, 1, 1, 0, 1, 1, 1, 1, 1, 0, 1, 1, 1, 1, 1, 0, 1, 1, 1, 1, 1, 0, 1, 1, 1
| 1, 1, 0, 1, 1, 0, 0, 0, 0, 0, 0, 1, 1, 1, 0, 1, 1, 1, 1, 1, 0, 1, 1, 1, 1, 1, 0, 1, 1, 1, 1, 1, 0, 1, 1
| 1, 1, 1, 0, 1, 0, 0, 0, 0, 0, 0, 1, 1, 1, 1, 0, 1, 1, 1, 1, 1, 0, 1, 1, 1, 1, 1, 0, 1, 1, 1, 1, 1, 0, 1
| 1, 1, 1, 1, 0, 0, 0, 0, 0, 0, 0, 1, 1, 1, 1, 1, 0, 1, 1, 1, 1, 1, 0, 1, 1, 1, 1, 1, 0, 1, 1, 1, 1, 1, 0
| 1, 1, 1, 1, 1, 1, 1, 1, 1, 1, 1, 0, 0, 0, 0, 0, 0, 1, 1, 1, 1, 1, 1, 1, 1, 1, 1, 1, 1, 1, 1, 1, 1, 1, 1
| 0, 1, 1, 1, 1, 1, 0, 1, 1, 1, 1, 0, 0, 0, 0, 0, 0, 1, 0, 1, 1, 1, 1, 1, 0, 1, 1, 1, 1, 1, 0, 1, 1, 1, 1
| 1, 0, 1, 1, 1, 1, 1, 0, 1, 1, 1, 0, 0, 0, 0, 0, 0, 1, 1, 0, 1, 1, 1, 1, 1, 0, 1, 1, 1, 1, 1, 0, 1, 1, 1
| 1, 1, 0, 1, 1, 1, 1, 1, 0, 1, 1, 0, 0, 0, 0, 0, 0, 1, 1, 1, 0, 1, 1, 1, 1, 1, 0, 1, 1, 1, 1, 1, 0, 1, 1
| 1, 1, 1, 0, 1, 1, 1, 1, 1, 0, 1, 0, 0, 0, 0, 0, 0, 1, 1, 1, 1, 0, 1, 1, 1, 1, 1, 0, 1, 1, 1, 1, 1, 0, 1
| 1, 1, 1, 1, 0, 1, 1, 1, 1, 1, 0, 0, 0, 0, 0, 0, 0, 1, 1, 1, 1, 1, 0, 1, 1, 1, 1, 1, 0, 1, 1, 1, 1, 1, 0
| 1, 1, 1, 1, 1, 1, 1, 1, 1, 1, 1, 1, 1, 1, 1, 1, 1, 0, 0, 0, 0, 0, 0, 1, 1, 1, 1, 1, 1, 1, 1, 1, 1, 1, 1
| 0, 1, 1, 1, 1, 1, 0, 1, 1, 1, 1, 1, 0, 1, 1, 1, 1, 0, 0, 0, 0, 0, 0, 1, 0, 1, 1, 1, 1, 1, 0, 1, 1, 1, 1
| 1, 0, 1, 1, 1, 1, 1, 0, 1, 1, 1, 1, 1, 0, 1, 1, 1, 0, 0, 0, 0, 0, 0, 1, 1, 0, 1, 1, 1, 1, 1, 0, 1, 1, 1
| 1, 1, 0, 1, 1, 1, 1, 1, 0, 1, 1, 1, 1, 1, 0, 1, 1, 0, 0, 0, 0, 0, 0, 1, 1, 1, 0, 1, 1, 1, 1, 1, 0, 1, 1
| 1, 1, 1, 0, 1, 1, 1, 1, 1, 0, 1, 1, 1, 1, 1, 0, 1, 0, 0, 0, 0, 0, 0, 1, 1, 1, 1, 0, 1, 1, 1, 1, 1, 0, 1
| 1, 1, 1, 1, 0, 1, 1, 1, 1, 1, 0, 1, 1, 1, 1, 1, 0, 0, 0, 0, 0, 0, 0, 1, 1, 1, 1, 1, 0, 1, 1, 1, 1, 1, 0
| 1, 1, 1, 1, 1, 1, 1, 1, 1, 1, 1, 1, 1, 1, 1, 1, 1, 1, 1, 1, 1, 1, 1, 0, 0, 0, 0, 0, 0, 1, 1, 1, 1, 1, 1
| 0, 1, 1, 1, 1, 1, 0, 1, 1, 1, 1, 1, 0, 1, 1, 1, 1, 1, 0, 1, 1, 1, 1, 0, 0, 0, 0, 0, 0, 1, 0, 1, 1, 1, 1
| 1, 0, 1, 1, 1, 1, 1, 0, 1, 1, 1, 1, 1, 0, 1, 1, 1, 1, 1, 0, 1, 1, 1, 0, 0, 0, 0, 0, 0, 1, 1, 0, 1, 1, 1
| 1, 1, 0, 1, 1, 1, 1, 1, 0, 1, 1, 1, 1, 1, 0, 1, 1, 1, 1, 1, 0, 1, 1, 0, 0, 0, 0, 0, 0, 1, 1, 1, 0, 1, 1
| 1, 1, 1, 0, 1, 1, 1, 1, 1, 0, 1, 1, 1, 1, 1, 0, 1, 1, 1, 1, 1, 0, 1, 0, 0, 0, 0, 0, 0, 1, 1, 1, 1, 0, 1
| 1, 1, 1, 1, 0, 1, 1, 1, 1, 1, 0, 1, 1, 1, 1, 1, 0, 1, 1, 1, 1, 1, 0, 0, 0, 0, 0, 0, 0, 1, 1, 1, 1, 1, 0
| 1, 1, 1, 1, 1, 1, 1, 1, 1, 1, 1, 1, 1, 1, 1, 1, 1, 1, 1, 1, 1, 1, 1, 1, 1, 1, 1, 1, 1, 0, 0, 0, 0, 0, 0
| 0, 1, 1, 1, 1, 1, 0, 1, 1, 1, 1, 1, 0, 1, 1, 1, 1, 1, 0, 1, 1, 1, 1, 1, 0, 1, 1, 1, 1, 0, 0, 0, 0, 0, 0
| 1, 0, 1, 1, 1, 1, 1, 0, 1, 1, 1, 1, 1, 0, 1, 1, 1, 1, 1, 0, 1, 1, 1, 1, 1, 0, 1, 1, 1, 0, 0, 0, 0, 0, 0
| 1, 1, 0, 1, 1, 1, 1, 1, 0, 1, 1, 1, 1, 1, 0, 1, 1, 1, 1, 1, 0, 1, 1, 1, 1, 1, 0, 1, 1, 0, 0, 0, 0, 0, 0
| 1, 1, 1, 0, 1, 1, 1, 1, 1, 0, 1, 1, 1, 1, 1, 0, 1, 1, 1, 1, 1, 0, 1, 1, 1, 1, 1, 0, 1, 0, 0, 0, 0, 0, 0
| 1, 1, 1, 1, 0, 1, 1, 1, 1, 1, 0, 1, 1, 1, 1, 1, 0, 1, 1, 1, 1, 1, 0, 1, 1, 1, 1, 1, 0, 0, 0, 0, 0, 0, 0 |];
